
******************************************************************************
This program contains Ipopt, a library for large-scale nonlinear optimization.
 Ipopt is released as open source code under the Eclipse Public License (EPL).
         For more information visit https://github.com/coin-or/Ipopt
******************************************************************************

This is Ipopt version 3.14.19, running with linear solver MUMPS 5.8.1.

Number of nonzeros in equality constraint Jacobian...:     4389
Number of nonzeros in inequality constraint Jacobian.:        0
Number of nonzeros in Lagrangian Hessian.............:     1050

Total number of variables............................:     1287
                     variables with only lower bounds:        0
                variables with lower and upper bounds:      457
                     variables with only upper bounds:        0
Total number of equality constraints.................:     1274
Total number of inequality constraints...............:        0
        inequality constraints with only lower bounds:        0
   inequality constraints with lower and upper bounds:        0
        inequality constraints with only upper bounds:        0

iter    objective    inf_pr   inf_du lg(mu)  ||d||  lg(rg) alpha_du alpha_pr  ls
   0  9.8518092e+00 9.90e+01 2.89e-04  -1.0 0.00e+00    -  0.00e+00 0.00e+00   0
   1  9.8516087e+00 7.44e-01 2.38e+01  -1.0 9.85e+01    -  3.91e-02 1.00e+00h  1
   2  9.8515837e+00 2.86e-02 3.24e-01  -1.0 3.45e-01    -  9.30e-01 1.00e+00h  1
   3  9.8589944e+00 1.08e+00 2.89e+00  -1.0 3.01e+00    -  6.23e-01 1.00e+00f  1
   4  9.8681930e+00 2.79e-01 1.02e+00  -1.0 4.06e+00    -  8.29e-01 7.17e-01h  1
   5  9.8730989e+00 2.21e-01 4.07e-03  -1.0 1.62e+00    -  1.00e+00 1.00e+00f  1
   6  9.8621253e+00 5.87e-01 2.29e-03  -1.7 1.08e+00    -  1.00e+00 1.00e+00h  1
   7  9.8634571e+00 4.77e-02 1.83e-04  -1.7 7.52e-01    -  1.00e+00 1.00e+00h  1
   8  9.8629118e+00 9.11e-02 1.27e-04  -2.5 6.76e-01    -  1.00e+00 1.00e+00h  1
   9  9.8625712e+00 3.80e-04 4.75e-06  -2.5 1.31e-01    -  1.00e+00 1.00e+00h  1
iter    objective    inf_pr   inf_du lg(mu)  ||d||  lg(rg) alpha_du alpha_pr  ls
  10  9.8619497e+00 3.21e-03 1.10e-02  -3.8 2.40e-01    -  8.20e-01 1.00e+00h  1
  11  9.8528071e+00 2.45e-03 3.59e-03  -3.8 3.68e+00    -  4.05e-01 1.00e+00h  1
  12  9.8513967e+00 7.93e-05 1.00e-04  -3.8 7.69e-01    -  1.00e+00 1.00e+00h  1
  13  9.8480949e+00 3.73e-04 5.29e-04  -5.7 1.51e+00    -  7.94e-01 1.00e+00h  1
  14  9.8478979e+00 1.70e-06 2.09e-06  -5.7 1.16e-01    -  1.00e+00 1.00e+00h  1
  15  9.8478903e+00 1.30e-06 9.20e-03  -8.6 3.31e-01    -  5.63e-01 2.34e-01h  1
  16  9.8478594e+00 3.63e-08 2.99e-04  -8.6 3.86e-01    -  6.17e-01 1.00e+00f  1
  17  9.8478593e+00 8.01e-13 9.36e-13  -8.6 1.78e-03    -  1.00e+00 1.00e+00h  1

Number of Iterations....: 17

                                   (scaled)                 (unscaled)
Objective...............:   9.8478592978826658e+00    9.8478592978826658e+00
Dual infeasibility......:   9.3597352091023822e-13    9.3597352091023822e-13
Constraint violation....:   8.0135897917443799e-13    8.0135897917443799e-13
Variable bound violation:   0.0000000000000000e+00    0.0000000000000000e+00
Complementarity.........:   5.6525938558090072e-09    5.6525938558090072e-09
Overall NLP error.......:   5.6525938558090072e-09    5.6525938558090072e-09


Number of objective function evaluations             = 18
Number of objective gradient evaluations             = 18
Number of equality constraint evaluations            = 18
Number of inequality constraint evaluations          = 0
Number of equality constraint Jacobian evaluations   = 18
Number of inequality constraint Jacobian evaluations = 0
Number of Lagrangian Hessian evaluations             = 17
Total seconds in IPOPT                               = 0.121

EXIT: Optimal Solution Found.
